(assert (forall ((pkt_0_4_6_0  Int  )(state_group_0_state_0_5_7_0  Int  )(state_group_0_state_1_6_8_0  Int  )) (let ((_n0 state_group_0_state_1_6_8_0 ))
(let ((_n1 state_group_0_state_0_5_7_0 ))
(let ((_n2 true ))
(let ((_n3 (+   _n1   (ite  _n2  1 0) ) ))
(let ((_n4 (ite (=  _n0  0)  _n3   _n1  ) ))
(let ((_n5 pkt_0_4_6_0 ))
(let ((_n6 (+   _n0   _n5 ) ))
(let ((_n7 (<   _n6   (ite  _n2  1 0) ) ))
(let ((_n8 false ))
(let ((_n9 (ite  _n7   (ite  _n8  1 0)   _n0  ) ))
(let ((_n10 (<   _n9   (ite  _n2  1 0) ) ))
(let ((_n11 (ite  _n7   _n8   _n10  ) ))
(let ((_n12 (not  _n11 ) ))
(let ((_n13 (or   _n12   _n7 ) ))
(let ((_n14 999 ))
(let ((_n15 (ite  _n13   (ite  _n8  1 0)   _n5  ) ))
(let ((_n16 (ite  _n13   (ite  _n8  1 0)   _n1  ) ))
(let ((_n17 (+   _n16   _n15 ) ))
(let ((_n18 (<   _n17   _n14 ) ))
(let ((_n19 (ite  _n13   _n8   _n18  ) ))
(let ((_n20 (or   _n19   _n13 ) ))
(let ((_n21 (ite  _n20   (ite  _n8  1 0)   _n5  ) ))
(let ((_n22 (ite  _n20   _n1   (ite  _n8  1 0)  ) ))
(let ((_n23 (+   _n22   _n21 ) ))
(let ((_n24 (not  _n19 ) ))
(let ((_n25 (or   _n24   _n13 ) ))
(let ((_n26 (not  _n25 ) ))
(let ((_n27 (+   _n1   (ite  _n26  1 0) ) ))
(let ((_n28 (ite (=  (ite  _n19  1 0)  1)  _n27   _n23  ) ))
(let ((_n29 (ite (=  (ite  _n11  1 0)  1)  _n28   _n1  ) ))
(let ((_n30 (ite  _n7   _n5   (ite  _n8  1 0)  ) ))
(let ((_n31 (ite  _n7   _n0   (ite  _n8  1 0)  ) ))
(let ((_n32 (+   _n31   _n30 ) ))
(let ((_n33 (=   _n32   (ite  _n8  1 0) ) ))
(let ((_n34 (not  _n33 ) ))
(let ((_n35 (and   _n7   _n34 ) ))
(let ((_n36 (not  _n7 ) ))
(let ((_n37 (or   _n35   _n36 ) ))
(let ((_n38 (not  _n37 ) ))
(let ((_n39 (ite  _n37   (ite  _n8  1 0)   _n5  ) ))
(let ((_n40 (+   _n39   (ite  _n38  1 0) ) ))
(let ((_n41 (ite  _n37   (ite  _n8  1 0)   _n40  ) ))
(let ((_n42 (+   _n1   _n41 ) ))
(let ((_n43 (and   _n35   _n7 ) ))
(let ((_n44 2 ))
(let ((_n45 (ite  _n43   _n44   (ite  _n8  1 0)  ) ))
(let ((_n46 (-  _n45 )))
(let ((_n47 3 ))
(let ((_n48 (ite  _n43   _n47   (ite  _n8  1 0)  ) ))
(let ((_n49 (+   _n48   _n46 ) ))
(let ((_n50 (ite  _n43   _n49   (ite  _n8  1 0)  ) ))
(let ((_n51 (+   _n1   _n50 ) ))
(let ((_n52 (ite (=  (ite  _n35  1 0)  1)  _n51   _n42  ) ))
(let ((_n53 (ite (=  (ite  _n7  1 0)  1)  _n52   _n29  ) ))
(let ((_n54 (=   _n53   _n4 ) ))
(let ((_n56 (ite (=  _n1  999)  (ite  _n2  1 0)   _n0  ) ))
(let ((_n57 (ite (=  _n0  0)  _n56   _n0  ) ))
(let ((_n58 (not  _n20 ) ))
(let ((_n59 (+   _n0   (ite  _n58  1 0) ) ))
(let ((_n60 (ite (=  (ite  _n19  1 0)  1)  _n0   _n59  ) ))
(let ((_n61 (ite (=  (ite  _n11  1 0)  1)  _n60   _n0  ) ))
(let ((_n62 (+   _n39   _n39 ) ))
(let ((_n63 (ite  _n37   (ite  _n8  1 0)   _n62  ) ))
(let ((_n64 (+   _n0   _n63 ) ))
(let ((_n65 (ite  _n43   _n14   (ite  _n8  1 0)  ) ))
(let ((_n66 (-  _n65 )))
(let ((_n67 (ite  _n43   _n5   (ite  _n8  1 0)  ) ))
(let ((_n68 (+   _n67   _n66 ) ))
(let ((_n69 (ite  _n43   _n68   (ite  _n8  1 0)  ) ))
(let ((_n70 (+   _n0   _n69 ) ))
(let ((_n71 (ite (=  (ite  _n35  1 0)  1)  _n70   _n64  ) ))
(let ((_n72 (ite (=  (ite  _n7  1 0)  1)  _n71   _n61  ) ))
(let ((_n73 (=   _n72   _n57 ) ))
(let ((_n75 (ite (=  _n5  0)  _n5   (ite  _n8  1 0)  ) ))
(let ((_n76 (ite (=  _n5  0)  _n75   _n5  ) ))
(let ((_n77 (=   _n76   _n5 ) ))
(implies  (and (and (>= state_group_0_state_1_6_8_0 0) (< state_group_0_state_1_6_8_0 1024 ))  (and (and (>= state_group_0_state_0_5_7_0 0) (< state_group_0_state_0_5_7_0 1024 ))  (and (>= pkt_0_4_6_0 0) (< pkt_0_4_6_0 1024 )) ) )   (and  _n54  _n73  _n77 )  )))))))))))))))))))))))))))))))))))))))))))))))))))))))))))))))))))))))))))))))
(check-sat)
(get-model)
(exit)